p cnf 589 416
c p distribution  0.875 0.125
c p distribution  0.875 0.125
c p distribution  0.875 0.125
c p distribution  0.875 0.125
c p distribution  0.875 0.125
c p distribution  0.875 0.125
c p distribution  0.875 0.125
c p distribution  0.875 0.125
c p distribution  0.875 0.125
c p distribution  0.875 0.125
c p distribution  0.875 0.125
c p distribution  0.875 0.125
c p distribution  0.875 0.125
c p distribution  0.875 0.125
c p distribution  0.875 0.125
c p distribution  0.875 0.125
c p distribution  0.875 0.125
c p distribution  0.875 0.125
c p distribution  0.875 0.125
c p distribution  0.875 0.125
c p distribution  0.875 0.125
c p distribution  0.875 0.125
c p distribution  0.875 0.125
c p distribution  0.875 0.125
c p distribution  0.875 0.125
c p distribution  0.875 0.125
c p distribution  0.875 0.125
c p distribution  0.875 0.125
c p distribution  0.875 0.125
c p distribution  0.875 0.125
c p distribution  0.875 0.125
c p distribution  0.875 0.125
c p distribution  0.875 0.125
c p distribution  0.875 0.125
c p distribution  0.875 0.125
c p distribution  0.875 0.125
c p distribution  0.875 0.125
c p distribution  0.875 0.125
c p distribution  0.875 0.125
c p distribution  0.875 0.125
c p distribution  0.875 0.125
c p distribution  0.875 0.125
c p distribution  0.875 0.125
c p distribution  0.875 0.125
c p distribution  0.875 0.125
c p distribution  0.875 0.125
c p distribution  0.875 0.125
c p distribution  0.875 0.125
c p distribution  0.875 0.125
c p distribution  0.875 0.125
c p distribution  0.875 0.125
c p distribution  0.875 0.125
c p distribution  0.875 0.125
c p distribution  0.875 0.125
c p distribution  0.875 0.125
c p distribution  0.875 0.125
c p distribution  0.875 0.125
c p distribution  0.875 0.125
c p distribution  0.875 0.125
c p distribution  0.875 0.125
c p distribution  0.875 0.125
c p distribution  0.875 0.125
c p distribution  0.875 0.125
c p distribution  0.875 0.125
c p distribution  0.875 0.125
c p distribution  0.875 0.125
c p distribution  0.875 0.125
c p distribution  0.875 0.125
c p distribution  0.875 0.125
c p distribution  0.875 0.125
c p distribution  0.875 0.125
c p distribution  0.875 0.125
c p distribution  0.875 0.125
c p distribution  0.875 0.125
c p distribution  0.875 0.125
c p distribution  0.875 0.125
c p distribution  0.875 0.125
c p distribution  0.875 0.125
c p distribution  0.875 0.125
c p distribution  0.875 0.125
c p distribution  0.875 0.125
c p distribution  0.875 0.125
c p distribution  0.875 0.125
c p distribution  0.875 0.125
c p distribution  0.875 0.125
c p distribution  0.875 0.125
c p distribution  0.875 0.125
c p distribution  0.875 0.125
c p distribution  0.875 0.125
c p distribution  0.875 0.125
c p distribution  0.875 0.125
c p distribution  0.875 0.125
c p distribution  0.875 0.125
c p distribution  0.875 0.125
c p distribution  0.875 0.125
c p distribution  0.875 0.125
c p distribution  0.875 0.125
c p distribution  0.875 0.125
c p distribution  0.875 0.125
c p distribution  0.875 0.125
c p distribution  0.875 0.125
c p distribution  0.875 0.125
c p distribution  0.875 0.125
c p distribution  0.875 0.125
c p distribution  0.875 0.125
c p distribution  0.875 0.125
c p distribution  0.875 0.125
c p distribution  0.875 0.125
c p distribution  0.875 0.125
c p distribution  0.875 0.125
c p distribution  0.875 0.125
c p distribution  0.875 0.125
c p distribution  0.875 0.125
c p distribution  0.875 0.125
c p distribution  0.875 0.125
c p distribution  0.875 0.125
c p distribution  0.875 0.125
c p distribution  0.875 0.125
c p distribution  0.875 0.125
c p distribution  0.875 0.125
c p distribution  0.875 0.125
c p distribution  0.875 0.125
c p distribution  0.875 0.125
c p distribution  0.875 0.125
c p distribution  0.875 0.125
c p distribution  0.875 0.125
c p distribution  0.875 0.125
c p distribution  0.875 0.125
c p distribution  0.875 0.125
c p distribution  0.875 0.125
c p distribution  0.875 0.125
c p distribution  0.875 0.125
c p distribution  0.875 0.125
c p distribution  0.875 0.125
c p distribution  0.875 0.125
c p distribution  0.875 0.125
c p distribution  0.875 0.125
c p distribution  0.875 0.125
c p distribution  0.875 0.125
c p distribution  0.875 0.125
c p distribution  0.875 0.125
c p distribution  0.875 0.125
c p distribution  0.875 0.125
c p distribution  0.875 0.125
c p distribution  0.875 0.125
c p distribution  0.875 0.125
c p distribution  0.875 0.125
c p distribution  0.875 0.125
c p distribution  0.875 0.125
c p distribution  0.875 0.125
c p distribution  0.875 0.125
c p distribution  0.875 0.125
c p distribution  0.875 0.125
c p distribution  0.875 0.125
c p distribution  0.875 0.125
c p distribution  0.875 0.125
c p distribution  0.875 0.125
c p distribution  0.875 0.125
c p distribution  0.875 0.125
c p distribution  0.875 0.125
c p distribution  0.875 0.125
c p distribution  0.875 0.125
c p distribution  0.875 0.125
c p distribution  0.875 0.125
c p distribution  0.875 0.125
c p distribution  0.875 0.125
c p distribution  0.875 0.125
c p distribution  0.875 0.125
c p distribution  0.875 0.125
c p distribution  0.875 0.125
c p distribution  0.875 0.125
c p distribution  0.875 0.125
c p distribution  0.875 0.125
c p distribution  0.875 0.125
c p distribution  0.875 0.125
c p distribution  0.875 0.125
c p distribution  0.875 0.125
c p distribution  0.875 0.125
c p distribution  0.875 0.125
c p distribution  0.875 0.125
c p distribution  0.875 0.125
c p distribution  0.875 0.125
c p distribution  0.875 0.125
c p distribution  0.875 0.125
c p distribution  0.875 0.125
c p distribution  0.875 0.125
c p distribution  0.875 0.125
c p distribution  0.875 0.125
c p distribution  0.875 0.125
c p distribution  0.875 0.125
c p distribution  0.875 0.125
c p distribution  0.875 0.125
c p distribution  0.875 0.125
c p distribution  0.875 0.125
c p distribution  0.875 0.125
c p distribution  0.875 0.125
c p distribution  0.875 0.125
c p distribution  0.875 0.125
c p distribution  0.875 0.125
c p distribution  0.875 0.125
c p distribution  0.875 0.125
c p distribution  0.875 0.125
c p distribution  0.875 0.125
c p distribution  0.875 0.125
c p distribution  0.875 0.125
c p distribution  0.875 0.125
c p distribution  0.875 0.125
509 0
-528 0
516 -502 -1 0
502 -516 -1 0
541 -425 -3 0
425 -541 -3 0
494 -563 -5 0
563 -494 -5 0
430 -501 -7 0
501 -430 -7 0
424 -443 -9 0
443 -424 -9 0
479 -475 -11 0
475 -479 -11 0
435 -461 -13 0
461 -435 -13 0
578 -490 -15 0
490 -578 -15 0
489 -444 -17 0
444 -489 -17 0
427 -472 -19 0
472 -427 -19 0
436 -416 -21 0
416 -436 -21 0
527 -546 -23 0
546 -527 -23 0
480 -538 -25 0
538 -480 -25 0
555 -462 -27 0
462 -555 -27 0
463 -417 -29 0
417 -463 -29 0
505 -538 -31 0
538 -505 -31 0
562 -446 -33 0
446 -562 -33 0
555 -531 -35 0
531 -555 -35 0
471 -448 -37 0
448 -471 -37 0
578 -495 -39 0
495 -578 -39 0
466 -521 -41 0
521 -466 -41 0
583 -509 -43 0
509 -583 -43 0
530 -433 -45 0
433 -530 -45 0
477 -501 -47 0
501 -477 -47 0
567 -580 -49 0
580 -567 -49 0
477 -566 -51 0
566 -477 -51 0
424 -514 -53 0
514 -424 -53 0
549 -429 -55 0
429 -549 -55 0
464 -438 -57 0
438 -464 -57 0
550 -419 -59 0
419 -550 -59 0
452 -470 -61 0
470 -452 -61 0
477 -566 -63 0
566 -477 -63 0
448 -426 -65 0
426 -448 -65 0
555 -417 -67 0
417 -555 -67 0
466 -457 -69 0
457 -466 -69 0
500 -482 -71 0
482 -500 -71 0
588 -553 -73 0
553 -588 -73 0
481 -531 -75 0
531 -481 -75 0
465 -537 -77 0
537 -465 -77 0
559 -531 -79 0
531 -559 -79 0
559 -531 -81 0
531 -559 -81 0
581 -419 -83 0
419 -581 -83 0
500 -472 -85 0
472 -500 -85 0
447 -492 -87 0
492 -447 -87 0
576 -446 -89 0
446 -576 -89 0
521 -571 -91 0
571 -521 -91 0
577 -544 -93 0
544 -577 -93 0
564 -505 -95 0
505 -564 -95 0
494 -522 -97 0
522 -494 -97 0
437 -511 -99 0
511 -437 -99 0
447 -578 -101 0
578 -447 -101 0
529 -482 -103 0
482 -529 -103 0
539 -443 -105 0
443 -539 -105 0
450 -547 -107 0
547 -450 -107 0
494 -431 -109 0
431 -494 -109 0
528 -453 -111 0
453 -528 -111 0
520 -418 -113 0
418 -520 -113 0
495 -490 -115 0
490 -495 -115 0
430 -560 -117 0
560 -430 -117 0
508 -426 -119 0
426 -508 -119 0
565 -522 -121 0
522 -565 -121 0
441 -534 -123 0
534 -441 -123 0
498 -583 -125 0
583 -498 -125 0
435 -482 -127 0
482 -435 -127 0
583 -558 -129 0
558 -583 -129 0
447 -490 -131 0
490 -447 -131 0
550 -588 -133 0
588 -550 -133 0
496 -498 -135 0
498 -496 -135 0
550 -489 -137 0
489 -550 -137 0
552 -415 -139 0
415 -552 -139 0
445 -468 -141 0
468 -445 -141 0
520 -589 -143 0
589 -520 -143 0
515 -478 -145 0
478 -515 -145 0
518 -556 -147 0
556 -518 -147 0
423 -418 -149 0
418 -423 -149 0
531 -589 -151 0
589 -531 -151 0
540 -422 -153 0
422 -540 -153 0
483 -556 -155 0
556 -483 -155 0
514 -525 -157 0
525 -514 -157 0
526 -434 -159 0
434 -526 -159 0
546 -467 -161 0
467 -546 -161 0
506 -442 -163 0
442 -506 -163 0
418 -589 -165 0
589 -418 -165 0
563 -428 -167 0
428 -563 -167 0
488 -569 -169 0
569 -488 -169 0
565 -519 -171 0
519 -565 -171 0
460 -516 -173 0
516 -460 -173 0
478 -519 -175 0
519 -478 -175 0
462 -420 -177 0
420 -462 -177 0
496 -573 -179 0
573 -496 -179 0
543 -426 -181 0
426 -543 -181 0
533 -584 -183 0
584 -533 -183 0
565 -433 -185 0
433 -565 -185 0
486 -415 -187 0
415 -486 -187 0
581 -507 -189 0
507 -581 -189 0
524 -515 -191 0
515 -524 -191 0
430 -487 -193 0
487 -430 -193 0
562 -561 -195 0
561 -562 -195 0
537 -421 -197 0
421 -537 -197 0
545 -451 -199 0
451 -545 -199 0
496 -585 -201 0
585 -496 -201 0
568 -571 -203 0
571 -568 -203 0
505 -584 -205 0
584 -505 -205 0
553 -415 -207 0
415 -553 -207 0
551 -491 -209 0
491 -551 -209 0
517 -438 -211 0
438 -517 -211 0
473 -475 -213 0
475 -473 -213 0
483 -534 -215 0
534 -483 -215 0
454 -528 -217 0
528 -454 -217 0
469 -525 -219 0
525 -469 -219 0
459 -523 -221 0
523 -459 -221 0
568 -521 -223 0
521 -568 -223 0
454 -435 -225 0
435 -454 -225 0
557 -458 -227 0
458 -557 -227 0
513 -447 -229 0
447 -513 -229 0
582 -430 -231 0
430 -582 -231 0
474 -468 -233 0
468 -474 -233 0
568 -457 -235 0
457 -568 -235 0
552 -436 -237 0
436 -552 -237 0
451 -523 -239 0
523 -451 -239 0
491 -461 -241 0
461 -491 -241 0
504 -443 -243 0
443 -504 -243 0
575 -448 -245 0
448 -575 -245 0
574 -419 -247 0
419 -574 -247 0
573 -481 -249 0
481 -573 -249 0
544 -466 -251 0
466 -544 -251 0
488 -449 -253 0
449 -488 -253 0
572 -423 -255 0
423 -572 -255 0
559 -542 -257 0
542 -559 -257 0
563 -434 -259 0
434 -563 -259 0
494 -537 -261 0
537 -494 -261 0
503 -501 -263 0
501 -503 -263 0
438 -576 -265 0
576 -438 -265 0
549 -533 -267 0
533 -549 -267 0
493 -561 -269 0
561 -493 -269 0
429 -444 -271 0
444 -429 -271 0
499 -515 -273 0
515 -499 -273 0
567 -532 -275 0
532 -567 -275 0
445 -440 -277 0
440 -445 -277 0
565 -430 -279 0
430 -565 -279 0
432 -442 -281 0
442 -432 -281 0
565 -524 -283 0
524 -565 -283 0
572 -516 -285 0
516 -572 -285 0
565 -476 -287 0
476 -565 -287 0
477 -560 -289 0
560 -477 -289 0
425 -503 -291 0
503 -425 -291 0
530 -450 -293 0
450 -530 -293 0
533 -536 -295 0
536 -533 -295 0
556 -441 -297 0
441 -556 -297 0
454 -482 -299 0
482 -454 -299 0
447 -491 -301 0
491 -447 -301 0
454 -450 -303 0
450 -454 -303 0
475 -551 -305 0
551 -475 -305 0
573 -567 -307 0
567 -573 -307 0
529 -562 -309 0
562 -529 -309 0
504 -587 -311 0
587 -504 -311 0
563 -439 -313 0
439 -563 -313 0
453 -460 -315 0
460 -453 -315 0
448 -511 -317 0
511 -448 -317 0
488 -449 -319 0
449 -488 -319 0
495 -492 -321 0
492 -495 -321 0
463 -417 -323 0
417 -463 -323 0
485 -446 -325 0
446 -485 -325 0
553 -552 -327 0
552 -553 -327 0
571 -421 -329 0
421 -571 -329 0
488 -481 -331 0
481 -488 -331 0
512 -461 -333 0
461 -512 -333 0
566 -548 -335 0
548 -566 -335 0
558 -559 -337 0
559 -558 -337 0
570 -502 -339 0
502 -570 -339 0
551 -557 -341 0
557 -551 -341 0
579 -538 -343 0
538 -579 -343 0
492 -473 -345 0
473 -492 -345 0
470 -457 -347 0
457 -470 -347 0
578 -484 -349 0
484 -578 -349 0
561 -500 -351 0
500 -561 -351 0
522 -524 -353 0
524 -522 -353 0
535 -544 -355 0
544 -535 -355 0
467 -503 -357 0
503 -467 -357 0
518 -572 -359 0
572 -518 -359 0
555 -481 -361 0
481 -555 -361 0
508 -543 -363 0
543 -508 -363 0
565 -415 -365 0
415 -565 -365 0
530 -429 -367 0
429 -530 -367 0
554 -587 -369 0
587 -554 -369 0
518 -483 -371 0
483 -518 -371 0
586 -470 -373 0
470 -586 -373 0
574 -536 -375 0
536 -574 -375 0
565 -519 -377 0
519 -565 -377 0
486 -422 -379 0
422 -486 -379 0
447 -482 -381 0
482 -447 -381 0
563 -582 -383 0
582 -563 -383 0
555 -417 -385 0
417 -555 -385 0
430 -566 -387 0
566 -430 -387 0
455 -511 -389 0
511 -455 -389 0
479 -459 -391 0
459 -479 -391 0
510 -540 -393 0
540 -510 -393 0
572 -423 -395 0
423 -572 -395 0
559 -456 -397 0
456 -559 -397 0
572 -460 -399 0
460 -572 -399 0
539 -525 -401 0
525 -539 -401 0
469 -425 -403 0
425 -469 -403 0
506 -555 -405 0
555 -506 -405 0
588 -550 -407 0
550 -588 -407 0
434 -468 -409 0
468 -434 -409 0
478 -519 -411 0
519 -478 -411 0
563 -537 -413 0
537 -563 -413 0

